20
1 0 4
2 0 4
2 1 1
3 0 4
3 1 6
3 2 8
4 0 2
4 1 9
4 2 2
4 3 7
5 0 4
5 1 5
5 2 5
5 3 5
5 4 10
6 0 3
6 1 10
6 2 4
6 3 10
6 4 2
6 5 6
7 0 9
7 1 8
7 2 3
7 3 2
7 4 7
7 5 9
7 6 7
8 0 2
8 1 3
8 2 3
8 3 4
8 4 8
8 5 7
8 6 5
8 7 4
9 0 4
9 1 6
9 2 8
9 3 10
9 4 1
9 5 7
9 6 8
9 7 2
9 8 9
10 0 9
10 1 1
10 2 1
10 3 1
10 4 6
10 5 2
10 6 8
10 7 5
10 8 9
10 9 6
11 0 5
11 1 8
11 2 6
11 3 8
11 4 1
11 5 2
11 6 8
11 7 9
11 8 1
11 9 7
11 10 10
12 0 5
12 1 8
12 2 4
12 3 1
12 4 3
12 5 1
12 6 9
12 7 3
12 8 4
12 9 3
12 10 9
12 11 3
13 0 7
13 1 10
13 2 5
13 3 7
13 4 6
13 5 3
13 6 1
13 7 10
13 8 8
13 9 3
13 10 10
13 11 6
13 12 7
14 0 8
14 1 3
14 2 7
14 3 4
14 4 4
14 5 7
14 6 6
14 7 6
14 8 3
14 9 8
14 10 2
14 11 10
14 12 2
14 13 1
15 0 5
15 1 6
15 2 1
15 3 3
15 4 7
15 5 3
15 6 8
15 7 3
15 8 1
15 9 5
15 10 1
15 11 8
15 12 8
15 13 8
15 14 3
16 0 4
16 1 6
16 2 1
16 3 9
16 4 5
16 5 2
16 6 4
16 7 6
16 8 1
16 9 6
16 10 10
16 11 10
16 12 9
16 13 2
16 14 3
16 15 5
17 0 2
17 1 7
17 2 1
17 3 6
17 4 1
17 5 6
17 6 8
17 7 1
17 8 9
17 9 3
17 10 3
17 11 4
17 12 5
17 13 3
17 14 7
17 15 6
17 16 5
18 0 10
18 1 3
18 2 8
18 3 9
18 4 8
18 5 8
18 6 1
18 7 8
18 8 6
18 9 8
18 10 3
18 11 4
18 12 1
18 13 6
18 14 7
18 15 8
18 16 8
18 17 2
19 0 5
19 1 10
19 2 6
19 3 2
19 4 1
19 5 5
19 6 7
19 7 7
19 8 9
19 9 8
19 10 8
19 11 8
19 12 8
19 13 8
19 14 6
19 15 7
19 16 5
19 17 8
19 18 7
